\  MWF-S ILP_max_weight — objective (7): maximize total preserved priority
\  2 DGs, 4 storage nodes, 0 transshipment nodes

Maximize
  obj: 98 f_0_0_1 + 40 f_1_0_5

Subject To
  c1: f_0_0_1 <= 3
  c2: f_1_0_5 <= 7
  c3: 3 f_0_4_13 + 8 f_1_4_13 <= 5
  c4: 3 f_0_10_13 + 8 f_1_10_13 <= 7
  c5: 3 f_0_12_13 + 8 f_1_12_13 <= 5
  c6: 3 f_0_8_13 + 8 f_1_8_13 <= 10
  c7: f_0_0_1 + f_0_6_1 + f_0_8_1 + f_0_12_1 - f_0_1_2 = 0
  c8: f_0_1_2 - f_0_2_5 - f_0_2_7 - f_0_2_11 = 0
  c9: f_0_6_3 + f_0_8_3 + f_0_10_3 - f_0_3_4 = 0
  c10: f_0_3_4 - f_0_4_5 - f_0_4_7 - f_0_4_9 - f_0_4_13 = 0
  c11: f_0_0_5 + f_0_2_5 + f_0_4_5 + f_0_8_5 + f_0_10_5 + f_0_12_5 - f_0_5_6 = 0
  c12: f_0_5_6 - f_0_6_1 - f_0_6_3 - f_0_6_7 - f_0_6_9 - f_0_6_11 = 0
  c13: f_0_2_7 + f_0_4_7 + f_0_6_7 + f_0_10_7 + f_0_12_7 - f_0_7_8 = 0
  c14: f_0_7_8 - f_0_8_1 - f_0_8_3 - f_0_8_5 - f_0_8_9 - f_0_8_11 - f_0_8_13 = 0
  c15: f_0_4_9 + f_0_6_9 + f_0_8_9 - f_0_9_10 = 0
  c16: f_0_9_10 - f_0_10_3 - f_0_10_5 - f_0_10_7 - f_0_10_13 = 0
  c17: f_0_2_11 + f_0_6_11 + f_0_8_11 - f_0_11_12 = 0
  c18: f_0_11_12 - f_0_12_1 - f_0_12_5 - f_0_12_7 - f_0_12_13 = 0
  c19: f_1_0_1 + f_1_6_1 + f_1_8_1 + f_1_12_1 - f_1_1_2 = 0
  c20: f_1_1_2 - f_1_2_5 - f_1_2_7 - f_1_2_11 = 0
  c21: f_1_6_3 + f_1_8_3 + f_1_10_3 - f_1_3_4 = 0
  c22: f_1_3_4 - f_1_4_5 - f_1_4_7 - f_1_4_9 - f_1_4_13 = 0
  c23: f_1_0_5 + f_1_2_5 + f_1_4_5 + f_1_8_5 + f_1_10_5 + f_1_12_5 - f_1_5_6 = 0
  c24: f_1_5_6 - f_1_6_1 - f_1_6_3 - f_1_6_7 - f_1_6_9 - f_1_6_11 = 0
  c25: f_1_2_7 + f_1_4_7 + f_1_6_7 + f_1_10_7 + f_1_12_7 - f_1_7_8 = 0
  c26: f_1_7_8 - f_1_8_1 - f_1_8_3 - f_1_8_5 - f_1_8_9 - f_1_8_11 - f_1_8_13 = 0
  c27: f_1_4_9 + f_1_6_9 + f_1_8_9 - f_1_9_10 = 0
  c28: f_1_9_10 - f_1_10_3 - f_1_10_5 - f_1_10_7 - f_1_10_13 = 0
  c29: f_1_2_11 + f_1_6_11 + f_1_8_11 - f_1_11_12 = 0
  c30: f_1_11_12 - f_1_12_1 - f_1_12_5 - f_1_12_7 - f_1_12_13 = 0
  c31: f_0_1_2 + f_1_1_2 <= 20
  c32: f_0_3_4 + f_1_3_4 <= 20
  c33: f_0_5_6 + f_1_5_6 <= 20
  c34: f_0_7_8 + f_1_7_8 <= 20
  c35: f_0_9_10 + f_1_9_10 <= 20
  c36: f_0_11_12 + f_1_11_12 <= 20

Bounds
  0 <= f_0_0_1 <= 3
  0 <= f_0_0_5 <= 0
  0 <= f_0_1_2 <= 20
  0 <= f_0_2_5 <= 10
  0 <= f_0_2_7 <= 10
  0 <= f_0_2_11 <= 10
  0 <= f_0_3_4 <= 20
  0 <= f_0_4_5 <= 10
  0 <= f_0_4_7 <= 10
  0 <= f_0_4_9 <= 10
  0 <= f_0_4_13 <= 1
  0 <= f_0_5_6 <= 20
  0 <= f_0_6_1 <= 10
  0 <= f_0_6_3 <= 10
  0 <= f_0_6_7 <= 10
  0 <= f_0_6_9 <= 10
  0 <= f_0_6_11 <= 10
  0 <= f_0_7_8 <= 20
  0 <= f_0_8_1 <= 10
  0 <= f_0_8_3 <= 10
  0 <= f_0_8_5 <= 10
  0 <= f_0_8_9 <= 10
  0 <= f_0_8_11 <= 10
  0 <= f_0_8_13 <= 3
  0 <= f_0_9_10 <= 20
  0 <= f_0_10_3 <= 10
  0 <= f_0_10_5 <= 10
  0 <= f_0_10_7 <= 10
  0 <= f_0_10_13 <= 2
  0 <= f_0_11_12 <= 20
  0 <= f_0_12_1 <= 10
  0 <= f_0_12_5 <= 10
  0 <= f_0_12_7 <= 10
  0 <= f_0_12_13 <= 1
  0 <= f_1_0_1 <= 0
  0 <= f_1_0_5 <= 7
  0 <= f_1_1_2 <= 20
  0 <= f_1_2_5 <= 10
  0 <= f_1_2_7 <= 10
  0 <= f_1_2_11 <= 10
  0 <= f_1_3_4 <= 20
  0 <= f_1_4_5 <= 10
  0 <= f_1_4_7 <= 10
  0 <= f_1_4_9 <= 10
  0 <= f_1_4_13 <= 0
  0 <= f_1_5_6 <= 20
  0 <= f_1_6_1 <= 10
  0 <= f_1_6_3 <= 10
  0 <= f_1_6_7 <= 10
  0 <= f_1_6_9 <= 10
  0 <= f_1_6_11 <= 10
  0 <= f_1_7_8 <= 20
  0 <= f_1_8_1 <= 10
  0 <= f_1_8_3 <= 10
  0 <= f_1_8_5 <= 10
  0 <= f_1_8_9 <= 10
  0 <= f_1_8_11 <= 10
  0 <= f_1_8_13 <= 1
  0 <= f_1_9_10 <= 20
  0 <= f_1_10_3 <= 10
  0 <= f_1_10_5 <= 10
  0 <= f_1_10_7 <= 10
  0 <= f_1_10_13 <= 0
  0 <= f_1_11_12 <= 20
  0 <= f_1_12_1 <= 10
  0 <= f_1_12_5 <= 10
  0 <= f_1_12_7 <= 10
  0 <= f_1_12_13 <= 0

General
  f_0_0_1 f_0_0_5 f_0_1_2 f_0_2_5 f_0_2_7 f_0_2_11 f_0_3_4 f_0_4_5 f_0_4_7 f_0_4_9 f_0_4_13 f_0_5_6 f_0_6_1 f_0_6_3 f_0_6_7 f_0_6_9 f_0_6_11 f_0_7_8 f_0_8_1 f_0_8_3 f_0_8_5 f_0_8_9 f_0_8_11 f_0_8_13 f_0_9_10 f_0_10_3 f_0_10_5 f_0_10_7 f_0_10_13 f_0_11_12 f_0_12_1 f_0_12_5 f_0_12_7 f_0_12_13 f_1_0_1 f_1_0_5 f_1_1_2 f_1_2_5 f_1_2_7 f_1_2_11 f_1_3_4 f_1_4_5 f_1_4_7 f_1_4_9 f_1_4_13 f_1_5_6 f_1_6_1 f_1_6_3 f_1_6_7 f_1_6_9 f_1_6_11 f_1_7_8 f_1_8_1 f_1_8_3 f_1_8_5 f_1_8_9 f_1_8_11 f_1_8_13 f_1_9_10 f_1_10_3 f_1_10_5 f_1_10_7 f_1_10_13 f_1_11_12 f_1_12_1 f_1_12_5 f_1_12_7 f_1_12_13

End
